start_domain = 2;
target_domain = 3;
vnflist_size = 5;
vnflist = [10,2,5,2,10];
vnf_arcs = [|1,2|2,3|3,4|4,5|];
proximity_to_source = [0,1,0,0,0];
proximity_to_destination = [0,0,0,1,0];
n_domain_constraints = 2;
domain_constraints = [|1,1,1,1|1,3,1,1|];
